c turning on binary mode checking
c parsing input formula with 2 variables and 4 clauses
c finished parsing
c detected empty clause; start verification via backward checking
c 4 of 4 clauses in core
c 2 of 3 lemmas in core using 5 resolution steps
c 0 RAT lemmas in core; 0 redundant literals in core lemmas
s VERIFIED
c verification time: 0.066 seconds
